LAMMPS (23 Jun 2022 - Update 1)
OMP_NUM_THREADS environment is not set. Defaulting to 1 thread. (src/comm.cpp:98)
  using 1 OpenMP thread(s) per MPI task
#圆柱内active polymer
variable R equal 20
variable L equal 40
variable N equal 50
variable k equal 10000 #键强度
variable k1 equal 0.1  #wall作用强度
variable kappa equal 1.0 #角作用强度
variable e_lj equal 1.0
variable cutoff1 equal 2.5
variable cutoff2 equal 1.0
variable gamma equal 10
variable damp equal 1.0/v_gamma
variable T equal 1.3-0.1*v_i
variable seed equal 12335
variable i loop 1 12

units          lj
dimension      3
boundary       f f f
atom_style     angle
neighbor       1.0 bin
neigh_modify   every 1 delay 0 check yes

read_data      data.co
Reading data file ...
  orthogonal box = (-20 -20 -40) to (20 20 40)
  1 by 1 by 1 MPI processor grid
  reading atoms ...
  80 atoms
  scanning bonds ...
  1 = max bonds/atom
  scanning angles ...
  1 = max angles/atom
  reading bonds ...
  79 bonds
  reading angles ...
  78 angles
Finding 1-2 1-3 1-4 neighbors ...
  special bond factors lj:    0        0        0       
  special bond factors coul:  0        0        0       
     2 = max # of 1-2 neighbors
     2 = max # of 1-3 neighbors
     4 = max # of 1-4 neighbors
     6 = max # of special neighbors
  special bonds CPU = 0.000 seconds
  read_data CPU = 0.016 seconds

pair_style     lj/cut  2.5
pair_coeff     1 1 1.0 1.0 1.12246

bond_style     harmonic
bond_coeff     1 ${k} 1.0
bond_coeff     1 10000 1.0

angle_style    harmonic
angle_coeff    1 ${kappa} 180
angle_coeff    1 1 180

region         area cylinder z 0 0 ${R} -50.0 50.0
region         area cylinder z 0 0 20 -50.0 50.0

group          1 type 1
80 atoms in group 1
group          3 id 2:79
78 atoms in group 3

timestep       0.001

thermo_style   custom step temp  v_kappa v_T
thermo         5000

dump           1 all custom 5000 active_polymerR=${R}k=${k1}kappa=${kappa}.dump type id x y z
dump           1 all custom 5000 active_polymerR=20k=${k1}kappa=${kappa}.dump type id x y z
dump           1 all custom 5000 active_polymerR=20k=0.1kappa=${kappa}.dump type id x y z
dump           1 all custom 5000 active_polymerR=20k=0.1kappa=1.dump type id x y z

fix            1 1 langevin 1.5 1.5 ${damp} ${seed} zero yes
fix            1 1 langevin 1.5 1.5 0.1 ${seed} zero yes
fix            1 1 langevin 1.5 1.5 0.1 12335 zero yes
fix            2 all wall/region area harmonic ${k1} ${R} ${R}
fix            2 all wall/region area harmonic 0.1 ${R} ${R}
fix            2 all wall/region area harmonic 0.1 20 ${R}
fix            2 all wall/region area harmonic 0.1 20 20

#fix           3 3 addforce v_f[1] v_f[2] v_f[3]

#fix           4 1 nve

label          loop_start
fix            3 1 nvt temp ${T} ${T}  1.0
fix            3 1 nvt temp 1.2 ${T}  1.0
fix            3 1 nvt temp 1.2 1.2  1.0
run            50000
Generated 0 of 0 mixed pair_coeff terms from geometric mixing rule
Neighbor list info ...
  update every 1 steps, delay 0 steps, check yes
  max neighbors/atom: 2000, page size: 100000
  master list distance cutoff = 2.12246
  ghost atom cutoff = 2.12246
  binsize = 1.06123, bins = 38 38 76
  1 neighbor lists, perpetual/occasional/extra = 1 0 0
  (1) pair lj/cut, perpetual
      attributes: half, newton on
      pair build: half/bin/newton
      stencil: half/bin/3d
      bin: standard
WARNING: Communication cutoff 2.1224600000000002 is shorter than a bond length based estimate of 2.5. This may lead to errors. (src/comm.cpp:727)
Per MPI rank memory allocation (min/avg/max) = 6.989 | 6.989 | 6.989 Mbytes
   Step          Temp         v_kappa          v_T      
         0   0              1              1.2          
      5000   1.5416677      1              1.2          
     10000   1.5011343      1              1.2          
     15000   1.4024739      1              1.2          
     20000   1.3338107      1              1.2          
     25000   1.5707069      1              1.2          
     30000   1.3349099      1              1.2          
     35000   1.5033723      1              1.2          
     40000   1.3715354      1              1.2          
     45000   1.4506752      1              1.2          
     50000   1.294512       1              1.2          
Loop time of 2.18449 on 1 procs for 50000 steps with 80 atoms

Performance: 1977581.587 tau/day, 22888.676 timesteps/s
99.9% CPU use with 1 MPI tasks x 1 OpenMP threads

MPI task timing breakdown:
Section |  min time  |  avg time  |  max time  |%varavg| %total
---------------------------------------------------------------
Pair    | 0.12448    | 0.12448    | 0.12448    |   0.0 |  5.70
Bond    | 0.66553    | 0.66553    | 0.66553    |   0.0 | 30.47
Neigh   | 0.089851   | 0.089851   | 0.089851   |   0.0 |  4.11
Comm    | 0.034899   | 0.034899   | 0.034899   |   0.0 |  1.60
Output  | 0.0038029  | 0.0038029  | 0.0038029  |   0.0 |  0.17
Modify  | 1.2025     | 1.2025     | 1.2025     |   0.0 | 55.05
Other   |            | 0.06338    |            |       |  2.90

Nlocal:             80 ave          80 max          80 min
Histogram: 1 0 0 0 0 0 0 0 0 0
Nghost:              0 ave           0 max           0 min
Histogram: 1 0 0 0 0 0 0 0 0 0
Neighs:            132 ave         132 max         132 min
Histogram: 1 0 0 0 0 0 0 0 0 0

Total # of neighbors = 132
Ave neighs/atom = 1.65
Ave special neighs/atom = 5.85
Neighbor list builds = 267
Dangerous builds = 0next           i
jump           SELF loop_start
fix            3 1 nvt temp ${T} ${T}  1.0
fix            3 1 nvt temp 1.1 ${T}  1.0
fix            3 1 nvt temp 1.1 1.1  1.0
run            50000
Generated 0 of 0 mixed pair_coeff terms from geometric mixing rule
WARNING: Communication cutoff 2.1224600000000002 is shorter than a bond length based estimate of 2.5. This may lead to errors. (src/comm.cpp:727)
Per MPI rank memory allocation (min/avg/max) = 6.989 | 6.989 | 6.989 Mbytes
   Step          Temp         v_kappa          v_T      
     50000   1.294512       1              1.1          
     55000   1.5628363      1              1.1          
     60000   1.3774886      1              1.1          
     65000   1.5578277      1              1.1          
     70000   1.499524       1              1.1          
     75000   1.594169       1              1.1          
     80000   1.6187075      1              1.1          
     85000   1.4391918      1              1.1          
     90000   1.4326722      1              1.1          
     95000   1.3985397      1              1.1          
    100000   1.530362       1              1.1          
Loop time of 2.30013 on 1 procs for 50000 steps with 80 atoms

Performance: 1878155.148 tau/day, 21737.907 timesteps/s
99.9% CPU use with 1 MPI tasks x 1 OpenMP threads

MPI task timing breakdown:
Section |  min time  |  avg time  |  max time  |%varavg| %total
---------------------------------------------------------------
Pair    | 0.16182    | 0.16182    | 0.16182    |   0.0 |  7.04
Bond    | 0.68919    | 0.68919    | 0.68919    |   0.0 | 29.96
Neigh   | 0.093546   | 0.093546   | 0.093546   |   0.0 |  4.07
Comm    | 0.035884   | 0.035884   | 0.035884   |   0.0 |  1.56
Output  | 0.0036311  | 0.0036311  | 0.0036311  |   0.0 |  0.16
Modify  | 1.25       | 1.25       | 1.25       |   0.0 | 54.35
Other   |            | 0.06602    |            |       |  2.87

Nlocal:             80 ave          80 max          80 min
Histogram: 1 0 0 0 0 0 0 0 0 0
Nghost:              0 ave           0 max           0 min
Histogram: 1 0 0 0 0 0 0 0 0 0
Neighs:            139 ave         139 max         139 min
Histogram: 1 0 0 0 0 0 0 0 0 0

Total # of neighbors = 139
Ave neighs/atom = 1.7375
Ave special neighs/atom = 5.85
Neighbor list builds = 257
Dangerous builds = 0
nnext           i
jump           SELF loop_start
fix            3 1 nvt temp ${T} ${T}  1.0
fix            3 1 nvt temp 1 ${T}  1.0
fix            3 1 nvt temp 1 1  1.0
run            50000
Generated 0 of 0 mixed pair_coeff terms from geometric mixing rule
WARNING: Communication cutoff 2.1224600000000002 is shorter than a bond length based estimate of 2.5. This may lead to errors. (src/comm.cpp:727)
Per MPI rank memory allocation (min/avg/max) = 6.989 | 6.989 | 6.989 Mbytes
   Step          Temp         v_kappa          v_T      
    100000   1.530362       1              1            
    105000   1.3793386      1              1            
    110000   1.2770118      1              1            
    115000   1.7076434      1              1            
    120000   1.4946695      1              1            
    125000   1.3295189      1              1            
    130000   1.3389232      1              1            
    135000   1.1932563      1              1            
    140000   1.3671592      1              1            
    145000   1.5088368      1              1            
    150000   1.3245021      1              1            
Loop time of 2.27288 on 1 procs for 50000 steps with 80 atoms

Performance: 1900670.700 tau/day, 21998.503 timesteps/s
99.9% CPU use with 1 MPI tasks x 1 OpenMP threads

MPI task timing breakdown:
Section |  min time  |  avg time  |  max time  |%varavg| %total
---------------------------------------------------------------
Pair    | 0.17768    | 0.17768    | 0.17768    |   0.0 |  7.82
Bond    | 0.68414    | 0.68414    | 0.68414    |   0.0 | 30.10
Neigh   | 0.08816    | 0.08816    | 0.08816    |   0.0 |  3.88
Comm    | 0.033837   | 0.033837   | 0.033837   |   0.0 |  1.49
Output  | 0.0035886  | 0.0035886  | 0.0035886  |   0.0 |  0.16
Modify  | 1.2213     | 1.2213     | 1.2213     |   0.0 | 53.73
Other   |            | 0.06421    |            |       |  2.83

Nlocal:             80 ave          80 max          80 min
Histogram: 1 0 0 0 0 0 0 0 0 0
Nghost:              0 ave           0 max           0 min
Histogram: 1 0 0 0 0 0 0 0 0 0
Neighs:            158 ave         158 max         158 min
Histogram: 1 0 0 0 0 0 0 0 0 0

Total # of neighbors = 158
Ave neighs/atom = 1.975
Ave special neighs/atom = 5.85
Neighbor list builds = 253
Dangerous builds = 0nnext           i
jump           SELF loop_start
fix            3 1 nvt temp ${T} ${T}  1.0
fix            3 1 nvt temp 0.9 ${T}  1.0
fix            3 1 nvt temp 0.9 0.9  1.0
run            50000
Generated 0 of 0 mixed pair_coeff terms from geometric mixing rule
WARNING: Communication cutoff 2.1224600000000002 is shorter than a bond length based estimate of 2.5. This may lead to errors. (src/comm.cpp:727)
Per MPI rank memory allocation (min/avg/max) = 6.989 | 6.989 | 6.989 Mbytes
   Step          Temp         v_kappa          v_T      
    150000   1.3245021      1              0.9          
    155000   1.7485665      1              0.9          
    160000   1.372827       1              0.9          
    165000   1.4067612      1              0.9          
    170000   1.4599022      1              0.9          
    175000   1.2948524      1              0.9          
    180000   1.5046665      1              0.9          
    185000   1.3170585      1              0.9          
    190000   1.3653385      1              0.9          
    195000   1.4433074      1              0.9          
    200000   1.5624371      1              0.9          
Loop time of 2.2489 on 1 procs for 50000 steps with 80 atoms

Performance: 1920937.629 tau/day, 22233.074 timesteps/s
99.9% CPU use with 1 MPI tasks x 1 OpenMP threads

MPI task timing breakdown:
Section |  min time  |  avg time  |  max time  |%varavg| %total
---------------------------------------------------------------
Pair    | 0.15209    | 0.15209    | 0.15209    |   0.0 |  6.76
Bond    | 0.68548    | 0.68548    | 0.68548    |   0.0 | 30.48
Neigh   | 0.088063   | 0.088063   | 0.088063   |   0.0 |  3.92
Comm    | 0.034336   | 0.034336   | 0.034336   |   0.0 |  1.53
Output  | 0.0036513  | 0.0036513  | 0.0036513  |   0.0 |  0.16
Modify  | 1.2211     | 1.2211     | 1.2211     |   0.0 | 54.30
Other   |            | 0.06417    |            |       |  2.85

Nlocal:             80 ave          80 max          80 min
Histogram: 1 0 0 0 0 0 0 0 0 0
Nghost:              0 ave           0 max           0 min
Histogram: 1 0 0 0 0 0 0 0 0 0
Neighs:            127 ave         127 max         127 min
Histogram: 1 0 0 0 0 0 0 0 0 0

Total # of neighbors = 127
Ave neighs/atom = 1.5875
Ave special neighs/atom = 5.85
Neighbor list builds = 253
Dangerous builds = 0
next           i
jump           SELF loop_start
fix            3 1 nvt temp ${T} ${T}  1.0
fix            3 1 nvt temp 0.8 ${T}  1.0
fix            3 1 nvt temp 0.8 0.8  1.0
run            50000
Generated 0 of 0 mixed pair_coeff terms from geometric mixing rule
WARNING: Communication cutoff 2.1224600000000002 is shorter than a bond length based estimate of 2.5. This may lead to errors. (src/comm.cpp:727)
Per MPI rank memory allocation (min/avg/max) = 6.989 | 6.989 | 6.989 Mbytes
   Step          Temp         v_kappa          v_T      
    200000   1.5624371      1              0.8          
    205000   1.739657       1              0.8          
    210000   1.2524016      1              0.8          
    215000   1.1383628      1              0.8          
    220000   1.4757045      1              0.8          
    225000   1.2352368      1              0.8          
    230000   1.2594441      1              0.8          
    235000   1.5835602      1              0.8          
    240000   1.4320294      1              0.8          
    245000   1.5728135      1              0.8          
    250000   1.3045458      1              0.8          
Loop time of 2.23602 on 1 procs for 50000 steps with 80 atoms

Performance: 1932002.886 tau/day, 22361.145 timesteps/s
99.9% CPU use with 1 MPI tasks x 1 OpenMP threads

MPI task timing breakdown:
Section |  min time  |  avg time  |  max time  |%varavg| %total
---------------------------------------------------------------
Pair    | 0.13714    | 0.13714    | 0.13714    |   0.0 |  6.13
Bond    | 0.68474    | 0.68474    | 0.68474    |   0.0 | 30.62
Neigh   | 0.084674   | 0.084674   | 0.084674   |   0.0 |  3.79
Comm    | 0.035202   | 0.035202   | 0.035202   |   0.0 |  1.57
Output  | 0.003714   | 0.003714   | 0.003714   |   0.0 |  0.17
Modify  | 1.2262     | 1.2262     | 1.2262     |   0.0 | 54.84
Other   |            | 0.06432    |            |       |  2.88

Nlocal:             80 ave          80 max          80 min
Histogram: 1 0 0 0 0 0 0 0 0 0
Nghost:              0 ave           0 max           0 min
Histogram: 1 0 0 0 0 0 0 0 0 0
Neighs:            146 ave         146 max         146 min
Histogram: 1 0 0 0 0 0 0 0 0 0

Total # of neighbors = 146
Ave neighs/atom = 1.825
Ave special neighs/atom = 5.85
Neighbor list builds = 243
Dangerous builds = 0
nnext           i
jump           SELF loop_start
fix            3 1 nvt temp ${T} ${T}  1.0
fix            3 1 nvt temp 0.7 ${T}  1.0
fix            3 1 nvt temp 0.7 0.7  1.0
run            50000
Generated 0 of 0 mixed pair_coeff terms from geometric mixing rule
WARNING: Communication cutoff 2.1224600000000002 is shorter than a bond length based estimate of 2.5. This may lead to errors. (src/comm.cpp:727)
Per MPI rank memory allocation (min/avg/max) = 6.989 | 6.989 | 6.989 Mbytes
   Step          Temp         v_kappa          v_T      
    250000   1.3045458      1              0.7          
    255000   1.3153188      1              0.7          
    260000   1.4985808      1              0.7          
    265000   1.4731628      1              0.7          
    270000   1.3530308      1              0.7          
    275000   1.750904       1              0.7          
    280000   1.6186487      1              0.7          
    285000   1.4214725      1              0.7          
    290000   1.525161       1              0.7          
    295000   1.4836271      1              0.7          
    300000   1.672062       1              0.7          
Loop time of 2.26801 on 1 procs for 50000 steps with 80 atoms

Performance: 1904754.691 tau/day, 22045.772 timesteps/s
99.9% CPU use with 1 MPI tasks x 1 OpenMP threads

MPI task timing breakdown:
Section |  min time  |  avg time  |  max time  |%varavg| %total
---------------------------------------------------------------
Pair    | 0.14397    | 0.14397    | 0.14397    |   0.0 |  6.35
Bond    | 0.68882    | 0.68882    | 0.68882    |   0.0 | 30.37
Neigh   | 0.084607   | 0.084607   | 0.084607   |   0.0 |  3.73
Comm    | 0.035175   | 0.035175   | 0.035175   |   0.0 |  1.55
Output  | 0.0033811  | 0.0033811  | 0.0033811  |   0.0 |  0.15
Modify  | 1.2471     | 1.2471     | 1.2471     |   0.0 | 54.99
Other   |            | 0.06496    |            |       |  2.86

Nlocal:             80 ave          80 max          80 min
Histogram: 1 0 0 0 0 0 0 0 0 0
Nghost:              0 ave           0 max           0 min
Histogram: 1 0 0 0 0 0 0 0 0 0
Neighs:            116 ave         116 max         116 min
Histogram: 1 0 0 0 0 0 0 0 0 0

Total # of neighbors = 116
Ave neighs/atom = 1.45
Ave special neighs/atom = 5.85
Neighbor list builds = 245
Dangerous builds = 0nnext           i
jump           SELF loop_start
fix            3 1 nvt temp ${T} ${T}  1.0
fix            3 1 nvt temp 0.6 ${T}  1.0
fix            3 1 nvt temp 0.6 0.6  1.0
run            50000
Generated 0 of 0 mixed pair_coeff terms from geometric mixing rule
WARNING: Communication cutoff 2.1224600000000002 is shorter than a bond length based estimate of 2.5. This may lead to errors. (src/comm.cpp:727)
Per MPI rank memory allocation (min/avg/max) = 6.989 | 6.989 | 6.989 Mbytes
   Step          Temp         v_kappa          v_T      
    300000   1.672062       1              0.6          
    305000   1.5367996      1              0.6          
    310000   1.2197606      1              0.6          
    315000   1.4802754      1              0.6          
    320000   1.3355757      1              0.6          
    325000   1.3188809      1              0.6          
    330000   1.3019517      1              0.6          
    335000   1.3215061      1              0.6          
    340000   1.447775       1              0.6          
    345000   1.3309281      1              0.6          
    350000   1.2750098      1              0.6          
Loop time of 2.29099 on 1 procs for 50000 steps with 80 atoms

Performance: 1885648.459 tau/day, 21824.635 timesteps/s
99.9% CPU use with 1 MPI tasks x 1 OpenMP threads

MPI task timing breakdown:
Section |  min time  |  avg time  |  max time  |%varavg| %total
---------------------------------------------------------------
Pair    | 0.15619    | 0.15619    | 0.15619    |   0.0 |  6.82
Bond    | 0.68729    | 0.68729    | 0.68729    |   0.0 | 30.00
Neigh   | 0.085889   | 0.085889   | 0.085889   |   0.0 |  3.75
Comm    | 0.035434   | 0.035434   | 0.035434   |   0.0 |  1.55
Output  | 0.0036113  | 0.0036113  | 0.0036113  |   0.0 |  0.16
Modify  | 1.2569     | 1.2569     | 1.2569     |   0.0 | 54.86
Other   |            | 0.06572    |            |       |  2.87

Nlocal:             80 ave          80 max          80 min
Histogram: 1 0 0 0 0 0 0 0 0 0
Nghost:              0 ave           0 max           0 min
Histogram: 1 0 0 0 0 0 0 0 0 0
Neighs:            166 ave         166 max         166 min
Histogram: 1 0 0 0 0 0 0 0 0 0

Total # of neighbors = 166
Ave neighs/atom = 2.075
Ave special neighs/atom = 5.85
Neighbor list builds = 245
Dangerous builds = nnnext           i
jump           SELF loop_start
fix            3 1 nvt temp ${T} ${T}  1.0
fix            3 1 nvt temp 0.5 ${T}  1.0
fix            3 1 nvt temp 0.5 0.5  1.0
run            50000
Generated 0 of 0 mixed pair_coeff terms from geometric mixing rule
WARNING: Communication cutoff 2.1224600000000002 is shorter than a bond length based estimate of 2.5. This may lead to errors. (src/comm.cpp:727)
Per MPI rank memory allocation (min/avg/max) = 6.989 | 6.989 | 6.989 Mbytes
   Step          Temp         v_kappa          v_T      
    350000   1.2750098      1              0.5          
    355000   1.5563182      1              0.5          
    360000   1.2673449      1              0.5          
    365000   1.4937978      1              0.5          
    370000   1.3569025      1              0.5          
    375000   1.3345874      1              0.5          
    380000   1.2970979      1              0.5          
    385000   1.4710337      1              0.5          
    390000   1.2608042      1              0.5          
    395000   1.4101349      1              0.5          
    400000   1.5540881      1              0.5          
Loop time of 2.32951 on 1 procs for 50000 steps with 80 atoms

Performance: 1854465.498 tau/day, 21463.721 timesteps/s
99.9% CPU use with 1 MPI tasks x 1 OpenMP threads

MPI task timing breakdown:
Section |  min time  |  avg time  |  max time  |%varavg| %total
---------------------------------------------------------------
Pair    | 0.15519    | 0.15519    | 0.15519    |   0.0 |  6.66
Bond    | 0.69236    | 0.69236    | 0.69236    |   0.0 | 29.72
Neigh   | 0.088113   | 0.088113   | 0.088113   |   0.0 |  3.78
Comm    | 0.036138   | 0.036138   | 0.036138   |   0.0 |  1.55
Output  | 0.0040037  | 0.0040037  | 0.0040037  |   0.0 |  0.17
Modify  | 1.2863     | 1.2863     | 1.2863     |   0.0 | 55.22
Other   |            | 0.06739    |            |       |  2.89

Nlocal:             80 ave          80 max          80 min
Histogram: 1 0 0 0 0 0 0 0 0 0
Nghost:              0 ave           0 max           0 min
Histogram: 1 0 0 0 0 0 0 0 0 0
Neighs:            108 ave         108 max         108 min
Histogram: 1 0 0 0 0 0 0 0 0 0

Total # of neighbors = 108
Ave neighs/atom = 1.35
Ave special neighs/atom = 5.85
Neighbor list builds = 244
Dangerous builds = nnnext           i
jump           SELF loop_start
fix            3 1 nvt temp ${T} ${T}  1.0
fix            3 1 nvt temp 0.4 ${T}  1.0
fix            3 1 nvt temp 0.4 0.4  1.0
run            50000
Generated 0 of 0 mixed pair_coeff terms from geometric mixing rule
WARNING: Communication cutoff 2.1224600000000002 is shorter than a bond length based estimate of 2.5. This may lead to errors. (src/comm.cpp:727)
Per MPI rank memory allocation (min/avg/max) = 6.989 | 6.989 | 6.989 Mbytes
   Step          Temp         v_kappa          v_T      
    400000   1.5540881      1              0.4          
    405000   1.3811505      1              0.4          
    410000   1.2269348      1              0.4          
    415000   1.5468822      1              0.4          
    420000   1.1962143      1              0.4          
    425000   1.2120447      1              0.4          
    430000   1.1941365      1              0.4          
    435000   1.3782785      1              0.4          
    440000   1.3656354      1              0.4          
    445000   1.3018271      1              0.4          
    450000   1.0896339      1              0.4          
Loop time of 2.32173 on 1 procs for 50000 steps with 80 atoms

Performance: 1860678.057 tau/day, 21535.626 timesteps/s
99.9% CPU use with 1 MPI tasks x 1 OpenMP threads

MPI task timing breakdown:
Section |  min time  |  avg time  |  max time  |%varavg| %total
---------------------------------------------------------------
Pair    | 0.15567    | 0.15567    | 0.15567    |   0.0 |  6.70
Bond    | 0.69392    | 0.69392    | 0.69392    |   0.0 | 29.89
Neigh   | 0.086355   | 0.086355   | 0.086355   |   0.0 |  3.72
Comm    | 0.036389   | 0.036389   | 0.036389   |   0.0 |  1.57
Output  | 0.0039621  | 0.0039621  | 0.0039621  |   0.0 |  0.17
Modify  | 1.2784     | 1.2784     | 1.2784     |   0.0 | 55.06
Other   |            | 0.06705    |            |       |  2.89

Nlocal:             80 ave          80 max          80 min
Histogram: 1 0 0 0 0 0 0 0 0 0
Nghost:              0 ave           0 max           0 min
Histogram: 1 0 0 0 0 0 0 0 0 0
Neighs:            120 ave         120 max         120 min
Histogram: 1 0 0 0 0 0 0 0 0 0

Total # of neighbors = 120
Ave neighs/atom = 1.5
Ave special neighs/atom = 5.85
Neighbor list builds = 240
Dangerous builds = nnnext           i
jump           SELF loop_start
fix            3 1 nvt temp ${T} ${T}  1.0
fix            3 1 nvt temp 0.3 ${T}  1.0
fix            3 1 nvt temp 0.3 0.3  1.0
run            50000
Generated 0 of 0 mixed pair_coeff terms from geometric mixing rule
WARNING: Communication cutoff 2.1224600000000002 is shorter than a bond length based estimate of 2.5. This may lead to errors. (src/comm.cpp:727)
Per MPI rank memory allocation (min/avg/max) = 6.989 | 6.989 | 6.989 Mbytes
   Step          Temp         v_kappa          v_T      
    450000   1.0896339      1              0.3          
    455000   1.3610125      1              0.3          
    460000   1.114857       1              0.3          
    465000   1.3142214      1              0.3          
    470000   1.3888081      1              0.3          
    475000   1.281          1              0.3          
    480000   1.1610481      1              0.3          
    485000   1.5032159      1              0.3          
    490000   1.1080914      1              0.3          
    495000   1.341034       1              0.3          
    500000   1.2152827      1              0.3          
Loop time of 2.22195 on 1 procs for 50000 steps with 80 atoms

Performance: 1944235.422 tau/day, 22502.725 timesteps/s
99.9% CPU use with 1 MPI tasks x 1 OpenMP threads

MPI task timing breakdown:
Section |  min time  |  avg time  |  max time  |%varavg| %total
---------------------------------------------------------------
Pair    | 0.14127    | 0.14127    | 0.14127    |   0.0 |  6.36
Bond    | 0.68324    | 0.68324    | 0.68324    |   0.0 | 30.75
Neigh   | 0.07854    | 0.07854    | 0.07854    |   0.0 |  3.53
Comm    | 0.034689   | 0.034689   | 0.034689   |   0.0 |  1.56
Output  | 0.0036823  | 0.0036823  | 0.0036823  |   0.0 |  0.17
Modify  | 1.2171     | 1.2171     | 1.2171     |   0.0 | 54.78
Other   |            | 0.06342    |            |       |  2.85

Nlocal:             80 ave          80 max          80 min
Histogram: 1 0 0 0 0 0 0 0 0 0
Nghost:              0 ave           0 max           0 min
Histogram: 1 0 0 0 0 0 0 0 0 0
Neighs:            115 ave         115 max         115 min
Histogram: 1 0 0 0 0 0 0 0 0 0

Total # of neighbors = 115
Ave neighs/atom = 1.4375
Ave special neighs/atom = 5.85
Neighbor list builds = 232
Dangerous builds = nnnext           i
jump           SELF loop_start
fix            3 1 nvt temp ${T} ${T}  1.0
fix            3 1 nvt temp 0.2 ${T}  1.0
fix            3 1 nvt temp 0.2 0.2  1.0
run            50000
Generated 0 of 0 mixed pair_coeff terms from geometric mixing rule
WARNING: Communication cutoff 2.1224600000000002 is shorter than a bond length based estimate of 2.5. This may lead to errors. (src/comm.cpp:727)
Per MPI rank memory allocation (min/avg/max) = 6.989 | 6.989 | 6.989 Mbytes
   Step          Temp         v_kappa          v_T      
    500000   1.2152827      1              0.2          
    505000   1.2377617      1              0.2          
    510000   1.4906013      1              0.2          
    515000   1.0974425      1              0.2          
    520000   1.4689788      1              0.2          
    525000   1.2596602      1              0.2          
    530000   1.2278645      1              0.2          
    535000   1.2706844      1              0.2          
    540000   1.4965268      1              0.2          
    545000   1.4628283      1              0.2          
    550000   1.2584395      1              0.2          
Loop time of 2.28674 on 1 procs for 50000 steps with 80 atoms

Performance: 1889148.888 tau/day, 21865.149 timesteps/s
99.9% CPU use with 1 MPI tasks x 1 OpenMP threads

MPI task timing breakdown:
Section |  min time  |  avg time  |  max time  |%varavg| %total
---------------------------------------------------------------
Pair    | 0.13284    | 0.13284    | 0.13284    |   0.0 |  5.81
Bond    | 0.69258    | 0.69258    | 0.69258    |   0.0 | 30.29
Neigh   | 0.079404   | 0.079404   | 0.079404   |   0.0 |  3.47
Comm    | 0.03612    | 0.03612    | 0.03612    |   0.0 |  1.58
Output  | 0.0036482  | 0.0036482  | 0.0036482  |   0.0 |  0.16
Modify  | 1.2753     | 1.2753     | 1.2753     |   0.0 | 55.77
Other   |            | 0.06688    |            |       |  2.92

Nlocal:             80 ave          80 max          80 min
Histogram: 1 0 0 0 0 0 0 0 0 0
Nghost:              0 ave           0 max           0 min
Histogram: 1 0 0 0 0 0 0 0 0 0
Neighs:             69 ave          69 max          69 min
Histogram: 1 0 0 0 0 0 0 0 0 0

Total # of neighbors = 69
Ave neighs/atom = 0.8625
Ave special neighs/atom = 5.85
Neighbor list builds = 223
Dangerous builds =nnnnext           i
jump           SELF loop_start
fix            3 1 nvt temp ${T} ${T}  1.0
fix            3 1 nvt temp 0.0999999999999999 ${T}  1.0
fix            3 1 nvt temp 0.0999999999999999 0.0999999999999999  1.0
run            50000
Generated 0 of 0 mixed pair_coeff terms from geometric mixing rule
WARNING: Communication cutoff 2.1224600000000002 is shorter than a bond length based estimate of 2.5. This may lead to errors. (src/comm.cpp:727)
Per MPI rank memory allocation (min/avg/max) = 6.989 | 6.989 | 6.989 Mbytes
   Step          Temp         v_kappa          v_T      
    550000   1.2584395      1              0.1          
    555000   1.3571846      1              0.1          
    560000   1.2840308      1              0.1          
    565000   1.0695644      1              0.1          
    570000   1.0562212      1              0.1          
    575000   1.1856716      1              0.1          
    580000   0.96170103     1              0.1          
    585000   1.3342854      1              0.1          
    590000   1.1018628      1              0.1          
    595000   1.049547       1              0.1          
    600000   1.1655196      1              0.1          
Loop time of 2.07391 on 1 procs for 50000 steps with 80 atoms

Performance: 2083024.978 tau/day, 24109.085 timesteps/s
99.4% CPU use with 1 MPI tasks x 1 OpenMP threads

MPI task timing breakdown:
Section |  min time  |  avg time  |  max time  |%varavg| %total
---------------------------------------------------------------
Pair    | 0.11692    | 0.11692    | 0.11692    |   0.0 |  5.64
Bond    | 0.65038    | 0.65038    | 0.65038    |   0.0 | 31.36
Neigh   | 0.062857   | 0.062857   | 0.062857   |   0.0 |  3.03
Comm    | 0.032011   | 0.032011   | 0.032011   |   0.0 |  1.54
Output  | 0.0035634  | 0.0035634  | 0.0035634  |   0.0 |  0.17
Modify  | 1.149      | 1.149      | 1.149      |   0.0 | 55.40
Other   |            | 0.05922    |            |       |  2.86

Nlocal:             80 ave          80 max          80 min
Histogram: 1 0 0 0 0 0 0 0 0 0
Nghost:              0 ave           0 max           0 min
Histogram: 1 0 0 0 0 0 0 0 0 0
Neighs:            114 ave         114 max         114 min
Histogram: 1 0 0 0 0 0 0 0 0 0

Total # of neighbors = 114
Ave neighs/atom = 1.425
Ave special neighs/atom = 5.85
Neighbor list builds = 199
Dangerous builds = 0
next           i
jump           SELF loop_start
Total wall time: 0:00:27
